18
3 0 14 0
3 0 3 0
3 0 4 0
3 0 9 0
3 0 8 0
3 0 5 0
3 0 12 0
3 0 15 0
3 0 21 0
3 0 25 0
3 0 33 0
3 0 30 0
9 0 24 27 11 26 28 31 29 0
3 0 7 0
5 0 6 10 22 0
5 0 1 13 16 0
5 0 2 19 20 0
9 0 17 23 18 35 32 34 36 0
